TYPE : Vertex Cover
DIMENSION: 33
EDGE_DATA_SECTION:
0 1
0 2
0 7
0 11
0 13
0 17
0 18
0 24
1 5
1 6
1 10
1 11
1 13
1 15
1 18
1 19
1 31
2 3
2 11
2 23
2 29
2 31
3 5
3 7
3 11
3 17
3 18
3 21
3 23
3 25
3 27
3 29
4 9
4 11
4 13
4 15
4 18
4 19
4 29
4 31
5 11
5 16
5 21
5 28
6 7
6 24
6 26
6 27
7 8
7 10
7 12
7 15
7 18
7 25
7 30
7 32
8 14
8 18
8 19
8 21
8 22
8 23
8 32
9 10
9 11
9 21
9 22
9 25
9 27
9 28
10 21
10 24
10 28
10 32
11 19
11 24
11 29
12 19
12 27
12 30
12 31
13 22
13 25
13 26
13 27
14 16
14 17
14 19
14 22
14 24
14 25
14 29
15 17
15 19
15 22
15 24
15 25
16 19
16 20
16 21
16 30
16 31
17 19
17 21
17 30
18 20
18 25
18 26
18 27
19 20
19 23
19 24
19 26
19 30
19 32
20 21
20 26
20 30
20 31
21 26
21 29
22 25
22 30
22 31
24 28
24 29
24 32
25 30
25 31
26 32
27 31
28 32
31 32
-1
VERTEX_DEGREE:
8.0 10.0 6.0 11.0 8.0 6.0 5.0 11.0 8.0 8.0 7.0 10.0 5.0 7.0 8.0 8.0 7.0 7.0 10.0 15.0 7.0 10.0 8.0 4.0 10.0 10.0 7.0 7.0 5.0 7.0 8.0 10.0 8.0
VERTEX_COVER:
0 1 2 3 4 5 7 8 9 10 12 16 17 19 20 22 24 25 26 27 29 32
EOF
